p cnf 327
-5 -103
-6 -106
-7 -109
-8 -112
-9 113
-10 114
-11 115
-12 116
-13 -6
-13 -7
6 7 13
-14 -8
-14 -9
8 9 14
-15 -10
-15 -11
10 11 15
-16 13
-16 14
-13 -14 16
-17 -12
-17 15
12 -15 17
-18 16
-18 17
-16 -17 18
-19 -5
-19 6
5 -6 19
-20 5
-20 -6
-5 6 20
-21 -19
-21 -20
19 20 21
-22 5
-22 6
-5 -6 22
-23 -5
-23 -21
5 21 23
-24 5
-24 21
-5 -21 24
-25 -23
-25 -24
23 24 25
-26 5
-26 -21
-5 21 26
-27 -22
-27 -26
22 26 27
-28 -6
-28 7
6 -7 28
-29 6
-29 -7
-6 7 29
-30 -28
-30 -29
28 29 30
-31 6
-31 7
-6 -7 31
-32 27
-32 -30
-27 30 32
-33 -27
-33 30
27 -30 33
-34 -32
-34 -33
32 33 34
-35 -27
-35 -30
27 30 35
-36 -31
-36 -35
31 35 36
-37 -7
-37 8
7 -8 37
-38 7
-38 -8
-7 8 38
-39 -37
-39 -38
37 38 39
-40 7
-40 8
-7 -8 40
-41 36
-41 -39
-36 39 41
-42 -36
-42 39
36 -39 42
-43 -41
-43 -42
41 42 43
-44 -36
-44 -39
36 39 44
-45 -40
-45 -44
40 44 45
-46 -8
-46 9
8 -9 46
-47 8
-47 -9
-8 9 47
-48 -46
-48 -47
46 47 48
-49 8
-49 9
-8 -9 49
-50 45
-50 -48
-45 48 50
-51 -45
-51 48
45 -48 51
-52 -50
-52 -51
50 51 52
-53 -45
-53 -48
45 48 53
-54 -49
-54 -53
49 53 54
-55 -9
-55 10
9 -10 55
-56 9
-56 -10
-9 10 56
-57 -55
-57 -56
55 56 57
-58 9
-58 10
-9 -10 58
-59 54
-59 -57
-54 57 59
-60 -54
-60 57
54 -57 60
-61 -59
-61 -60
59 60 61
-62 -54
-62 -57
54 57 62
-63 -58
-63 -62
58 62 63
-64 -10
-64 11
10 -11 64
-65 10
-65 -11
-10 11 65
-66 -64
-66 -65
64 65 66
-67 10
-67 11
-10 -11 67
-68 63
-68 -66
-63 66 68
-69 -63
-69 66
63 -66 69
-70 -68
-70 -69
68 69 70
-71 -63
-71 -66
63 66 71
-72 -67
-72 -71
67 71 72
-73 -11
-73 12
11 -12 73
-74 11
-74 -12
-11 12 74
-75 -73
-75 -74
73 74 75
-76 11
-76 12
-11 -12 76
-77 72
-77 -75
-72 75 77
-78 -72
-78 75
72 -75 78
-79 -77
-79 -78
77 78 79
-80 -72
-80 -75
72 75 80
-81 -76
-81 -80
76 80 81
-82 5
-82 -25
-5 25 82
-83 -5
-83 7
5 -7 83
-84 -82
-84 -83
82 83 84
-85 5
-85 -34
-5 34 85
-86 -5
-86 8
5 -8 86
-87 -85
-87 -86
85 86 87
-88 5
-88 -43
-5 43 88
-89 -5
-89 9
5 -9 89
-90 -88
-90 -89
88 89 90
-91 5
-91 -52
-5 52 91
-92 -5
-92 10
5 -10 92
-93 -91
-93 -92
91 92 93
-94 5
-94 -61
-5 61 94
-95 -5
-95 11
5 -11 95
-96 -94
-96 -95
94 95 96
-97 5
-97 -70
-5 70 97
-98 -5
-98 12
5 -12 98
-99 -97
-99 -98
97 98 99
-100 5
-100 -79
-5 79 100
-101 1
-101 18
-1 -18 101
-102 -18
-102 19
18 -19 102
-103 -101
-103 -102
101 102 103
-104 2
-104 18
-2 -18 104
-105 -18
-105 -84
18 84 105
-106 -104
-106 -105
104 105 106
-107 3
-107 18
-3 -18 107
-108 -18
-108 -87
18 87 108
-109 -107
-109 -108
107 108 109
-110 4
-110 18
-4 -18 110
-111 -18
-111 -90
18 90 111
-112 -110
-112 -111
110 111 112
-113 -18
-113 -93
18 93 113
-114 -18
-114 -96
18 96 114
-115 -18
-115 -99
18 99 115
-116 -18
-116 100
18 -100 116
-117 -12
-117 81
12 -81 117
-118 5
-118 -117
-5 117 118
118
